(set-info :origin "SVCOMP13 benchmarks generated by Arie Gurfinkel")
(set-info :status sat)
(set-logic HORN)
(declare-fun cp-rel-entry () Bool)
(declare-fun cp-rel-bb1.i.i43.i.i () Bool)
(declare-fun cp-rel-bb1.i.i (Real Real Real) Bool)
(assert |cp-rel-entry|)
(assert (forall ((?A Real) (?B Real) (?C Real) (?D Bool) )(let (($x850563 (and |cp-rel-entry| (<= ?C 0.0) (>= ?B 1.0) (<= ?B 1.0) (>= ?A 0.0) (<= ?A 0.0) (= ?D true) (>= ?C 0.0))))
(=> $x850563 (|cp-rel-bb1.i.i| ?A ?B ?C))))
)
(assert (forall ((?A Real) (?B Real) (?C Real) (?D Real) (?E Real) (?F Real) (?G Bool) (?H Bool) (?I Bool) (?J Bool) (?K Bool) (?L Bool) (?M Real) (?N Real) (?O Bool) (?P Bool) (?Q Bool) (?R Bool) (?S Bool) (?T Bool) (?U Real) (?V Real) (?W Bool) (?X Bool) (?Y Bool) (?Z Bool) (?A1 Bool) (?B1 Bool) (?C1 Bool) (?D1 Bool) (?E1 Bool) (?F1 Bool) (?G1 Bool) (?H1 Bool) (?I1 Bool) (?J1 Bool) (?K1 Real) (?L1 Real) (?M1 Real) (?N1 Bool) (?O1 Bool) (?P1 Real) (?Q1 Bool) (?R1 Bool) (?S1 Real) (?T1 Bool) (?U1 Real) (?V1 Real) (?W1 Bool) (?X1 Bool) (?Y1 Real) (?Z1 Bool) (?A2 Bool) (?B2 Bool) (?C2 Bool) (?D2 Bool) )(let (($x293443 (|cp-rel-bb1.i.i| ?D ?E ?F)))
(let (($x359643 (= ?R1 (or ?D2 ?C2))))
(let (($x282029 (or (not ?G) (and ?H ?I (not ?J)))))
(let (($x3771 (or (not ?G) ?I)))
(let (($x126575 (not ?K)))
(let (($x864910 (or $x126575 (and ?G ?L (<= ?M ?N) (>= ?M ?N)) (and ?H ?O ?J (<= ?M ?B) (>= ?M ?B)))))
(let (($x833166 (or $x126575 (and ?L (not ?O)) (and ?O (not ?L)))))
(let (($x741760 (or (not ?P) (and ?K ?Q (not ?R)))))
(let (($x447351 (or (not ?P) ?Q)))
(let (($x213932 (not ?S)))
(let (($x157973 (or $x213932 (and ?P ?T (<= ?U ?V) (>= ?U ?V)) (and ?K ?W ?R (<= ?U ?A) (>= ?U ?A)))))
(let (($x905578 (or $x213932 (and ?T (not ?W)) (and ?W (not ?T)))))
(let (($x467856 (or (not ?X) (and ?S ?Y ?Z))))
(let (($x757394 (or (not ?X) ?Y)))
(let (($x54810 (or (not ?A1) (and ?S ?B1 (not ?Z)))))
(let (($x722134 (or (not ?A1) ?B1)))
(let (($x410430 (or (not ?C1) (and ?X ?D1 ?E1))))
(let (($x343056 (or (not ?C1) ?D1)))
(let (($x296544 (or (not ?F1) (and ?A1 ?G1 ?H1))))
(let (($x445769 (or (not ?F1) ?G1)))
(let (($x567711 (>= ?K1 ?P1)))
(let (($x251537 (<= ?K1 ?P1)))
(let (($x11586 (and ?A1 ?Q1 (not ?H1) $x251537 $x567711 (<= ?L1 0.0) (>= ?L1 0.0))))
(let (($x298485 (>= ?K1 ?M)))
(let (($x111691 (<= ?K1 ?M)))
(let (($x413768 (not ?I1)))
(let (($x62014 (or $x413768 (and ?C1 ?J1 $x111691 $x298485 (<= ?L1 ?M1) (>= ?L1 ?M1)) (and ?X ?N1 (not ?E1) $x111691 $x298485 (<= ?L1 ?C) (>= ?L1 ?C)) (and ?F1 ?O1 $x251537 $x567711 (<= ?L1 ?C) (>= ?L1 ?C)) $x11586)))
(let (($x213082 (or $x413768 (and ?J1 (not ?N1) (not ?O1) (not ?Q1)) (and ?N1 (not ?J1) (not ?O1) (not ?Q1)) (and ?O1 (not ?J1) (not ?N1) (not ?Q1)) (and ?Q1 (not ?J1) (not ?N1) (not ?O1)))))
(let (($x287889 (= ?I1 true)))
(let (($x561383 (= ?R1 true)))
(let (($x319210 (= ?J (= ?S1 0.0))))
(let (($x866386 (= ?U1 (ite ?T1 1.0 0.0))))
(let (($x521881 (= ?R (= ?V1 0.0))))
(let (($x532537 (= ?V (ite ?W1 1.0 0.0))))
(let (($x574517 (= ?E1 (not (<= ?M 1.0)))))
(let (($x546775 (= ?X1 (not (<= ?M 0.0)))))
(let (($x232024 (= ?Y1 (+ (~ 1.0) ?M))))
(let (($x133290 (= ?P1 (ite ?X1 ?Y1 ?M))))
(let (($x873913 (= ?Z1 (= ?U 0.0))))
(let (($x126457 (= ?A2 (= ?P1 0.0))))
(let (($x386357 (= ?H1 (and ?Z1 ?A2))))
(let (($x599299 (= ?B2 (= ?U 0.0))))
(let (($x535270 (= ?C2 (not (= ?K1 0.0)))))
(let (($x367467 (= ?D2 (= ?L1 0.0))))
(let (($x332355 (and (|cp-rel-bb1.i.i| ?A ?B ?C) $x367467 $x535270 (= ?M1 (ite ?B2 1.0 ?C)) $x599299 $x386357 $x126457 $x873913 $x133290 $x232024 $x546775 $x574517 (= ?Z (= ?C 0.0)) $x532537 (= ?W1 (= ?A 0.0)) $x521881 (= ?N (+ ?U1 ?B)) $x866386 (= ?T1 (not (<= 2.0 ?B))) $x319210 (>= ?F ?L1) (<= ?F ?L1) (>= ?E ?K1) (<= ?E ?K1) (>= ?D ?U) (<= ?D ?U) $x561383 $x287889 $x213082 $x62014 $x445769 $x296544 $x343056 $x410430 $x722134 $x54810 $x757394 $x467856 $x905578 $x157973 $x447351 $x741760 $x833166 $x864910 $x3771 $x282029 $x359643)))
(=> $x332355 $x293443)))))))))))))))))))))))))))))))))))))))))))))))
)
(assert (forall ((?A Real) (?B Real) (?C Real) (?D Bool) (?E Bool) (?F Bool) (?G Bool) (?H Bool) (?I Bool) (?J Real) (?K Real) (?L Bool) (?M Bool) (?N Bool) (?O Bool) (?P Bool) (?Q Bool) (?R Real) (?S Real) (?T Bool) (?U Bool) (?V Bool) (?W Bool) (?X Bool) (?Y Bool) (?Z Bool) (?A1 Bool) (?B1 Bool) (?C1 Bool) (?D1 Bool) (?E1 Bool) (?F1 Bool) (?G1 Bool) (?H1 Real) (?I1 Real) (?J1 Real) (?K1 Bool) (?L1 Bool) (?M1 Real) (?N1 Bool) (?O1 Bool) (?P1 Real) (?Q1 Bool) (?R1 Real) (?S1 Real) (?T1 Bool) (?U1 Bool) (?V1 Real) (?W1 Bool) (?X1 Bool) (?Y1 Bool) (?Z1 Bool) (?A2 Bool) )(let (($x359643 (= ?O1 (or ?A2 ?Z1))))
(let (($x282029 (or (not ?D) (and ?E ?F (not ?G)))))
(let (($x3771 (or (not ?D) ?F)))
(let (($x126575 (not ?H)))
(let (($x268589 (or $x126575 (and ?D ?I (<= ?J ?K) (>= ?J ?K)) (and ?E ?L ?G (<= ?J ?B) (>= ?J ?B)))))
(let (($x833166 (or $x126575 (and ?I (not ?L)) (and ?L (not ?I)))))
(let (($x741760 (or (not ?M) (and ?H ?N (not ?O)))))
(let (($x447351 (or (not ?M) ?N)))
(let (($x213932 (not ?P)))
(let (($x924882 (or $x213932 (and ?M ?Q (<= ?R ?S) (>= ?R ?S)) (and ?H ?T ?O (<= ?R ?A) (>= ?R ?A)))))
(let (($x905578 (or $x213932 (and ?Q (not ?T)) (and ?T (not ?Q)))))
(let (($x467856 (or (not ?U) (and ?P ?V ?W))))
(let (($x757394 (or (not ?U) ?V)))
(let (($x54810 (or (not ?X) (and ?P ?Y (not ?W)))))
(let (($x722134 (or (not ?X) ?Y)))
(let (($x410430 (or (not ?Z) (and ?U ?A1 ?B1))))
(let (($x343056 (or (not ?Z) ?A1)))
(let (($x296544 (or (not ?C1) (and ?X ?D1 ?E1))))
(let (($x445769 (or (not ?C1) ?D1)))
(let (($x567711 (>= ?H1 ?M1)))
(let (($x251537 (<= ?H1 ?M1)))
(let (($x11586 (and ?X ?N1 (not ?E1) $x251537 $x567711 (<= ?I1 0.0) (>= ?I1 0.0))))
(let (($x298485 (>= ?H1 ?J)))
(let (($x111691 (<= ?H1 ?J)))
(let (($x413768 (not ?F1)))
(let (($x490360 (or $x413768 (and ?Z ?G1 $x111691 $x298485 (<= ?I1 ?J1) (>= ?I1 ?J1)) (and ?U ?K1 (not ?B1) $x111691 $x298485 (<= ?I1 ?C) (>= ?I1 ?C)) (and ?C1 ?L1 $x251537 $x567711 (<= ?I1 ?C) (>= ?I1 ?C)) $x11586)))
(let (($x213082 (or $x413768 (and ?G1 (not ?K1) (not ?L1) (not ?N1)) (and ?K1 (not ?G1) (not ?L1) (not ?N1)) (and ?L1 (not ?G1) (not ?K1) (not ?N1)) (and ?N1 (not ?G1) (not ?K1) (not ?L1)))))
(let (($x287889 (= ?F1 true)))
(let (($x319210 (= ?G (= ?P1 0.0))))
(let (($x866386 (= ?R1 (ite ?Q1 1.0 0.0))))
(let (($x521881 (= ?O (= ?S1 0.0))))
(let (($x532537 (= ?S (ite ?T1 1.0 0.0))))
(let (($x574517 (= ?B1 (not (<= ?J 1.0)))))
(let (($x546775 (= ?U1 (not (<= ?J 0.0)))))
(let (($x232024 (= ?V1 (+ (~ 1.0) ?J))))
(let (($x133290 (= ?M1 (ite ?U1 ?V1 ?J))))
(let (($x873913 (= ?W1 (= ?R 0.0))))
(let (($x126457 (= ?X1 (= ?M1 0.0))))
(let (($x386357 (= ?E1 (and ?W1 ?X1))))
(let (($x599299 (= ?Y1 (= ?R 0.0))))
(let (($x535270 (= ?Z1 (not (= ?H1 0.0)))))
(let (($x367467 (= ?A2 (= ?I1 0.0))))
(let (($x293443 (|cp-rel-bb1.i.i| ?A ?B ?C)))
(let (($x113697 (and $x293443 $x367467 $x535270 (= ?J1 (ite ?Y1 1.0 ?C)) $x599299 $x386357 $x126457 $x873913 $x133290 $x232024 $x546775 $x574517 (= ?W (= ?C 0.0)) $x532537 (= ?T1 (= ?A 0.0)) $x521881 (= ?K (+ ?R1 ?B)) $x866386 (= ?Q1 (not (<= 2.0 ?B))) $x319210 (not (= ?O1 true)) $x287889 $x213082 $x490360 $x445769 $x296544 $x343056 $x410430 $x722134 $x54810 $x757394 $x467856 $x905578 $x924882 $x447351 $x741760 $x833166 $x268589 $x3771 $x282029 $x359643)))
(=> $x113697 |cp-rel-bb1.i.i43.i.i|))))))))))))))))))))))))))))))))))))))))))))))
)
(assert (not cp-rel-bb1.i.i43.i.i))
(check-sat)
